assets/logs/9_10x10_clingo/9_10x10_clingo.solution.log

-----------------------------------------
| 88| 18| 48| 26| 31| 81| 91| 85|  0| 37|
-----------------------------------------
| 50| 24| 86| 16| 46| 28| 33| 39| 53| 87|
-----------------------------------------
| 20| 90| 52| 29| 79| 41| 83| 89| 35| 49|
-----------------------------------------
| 66| 27| 22| 84| 14| 44| 30| 51|  1| 55|
-----------------------------------------
| 92| 54| 68| 77| 72| 82| 43| 57| 47|  1|
-----------------------------------------
| 25| 64| 73| 12| 42| 32|  1| 80| 13|  3|
-----------------------------------------
| 56| 10| 23| 70| 75| 74| 11| 45| 59| 78|
-----------------------------------------
| 62|  4| 58| 71| 21| 40| 34| 76|  5| 15|
-----------------------------------------
|  8| 69|  1|  2| 36| 65| 19|  9|  1| 61|
-----------------------------------------
|  0| 60|  6| 67|  1|  0| 38| 63| 17|  7|
-----------------------------------------

| n = 10 | k = 6 | coverage = 97, 97.0%
 Time 300.0
 Name 9_10x10_clingo

