assets/logs/9_10x10_clingo/9_10x10_clingo.log
clingo version 5.4.0
Reading from ...ts/logs/9_10x10_clingo/knights_tour.lp ...
Solving...
Answer: 1
occ(1,4,9) occ(1,5,10) occ(1,9,9) occ(1,9,3) occ(1,6,7) occ(1,10,5) occ(2,9,4) occ(3,6,10) coverage(6)
Optimization: -6
Answer: 2
occ(1,4,9) occ(1,5,10) occ(1,9,9) occ(1,9,3) occ(1,6,7) occ(1,10,5) occ(2,9,4) occ(3,6,10) coverage(7) occ(6,8,1) occ(4,10,2)
Optimization: -7
Answer: 3
occ(1,4,9) occ(1,5,10) occ(1,9,9) occ(1,9,3) occ(1,6,7) occ(1,10,5) occ(2,9,4) occ(3,6,10) coverage(30) occ(10,1,2) occ(16,1,5) occ(25,1,4) occ(35,1,9) occ(41,1,8) occ(95,1,7) occ(14,2,3) occ(23,2,2) occ(27,2,6) occ(28,2,4) occ(31,2,8) occ(37,2,7) occ(43,2,10) occ(93,2,9) occ(8,3,3) occ(9,3,4) occ(12,3,1) occ(18,3,6) occ(26,3,2) occ(33,3,10) occ(39,3,9) occ(45,3,8) occ(7,4,6) occ(11,4,2) occ(21,4,1) occ(22,4,3) occ(29,4,7) occ(91,4,10) occ(5,5,8) occ(6,5,4) occ(20,5,5) occ(24,5,1) occ(47,5,9) occ(13,6,1) occ(19,6,2) occ(89,6,9) occ(4,7,5) occ(15,7,3) occ(49,7,10) occ(63,7,1) occ(75,7,9) occ(17,8,1) occ(51,8,8) occ(61,8,3) occ(81,8,9) occ(87,8,10) occ(55,9,5) occ(59,9,1) occ(65,9,2) occ(69,9,6) occ(73,9,10) occ(77,9,8) occ(83,9,7) occ(53,10,7) occ(57,10,3) occ(67,10,4) occ(71,10,8) occ(79,10,10) occ(85,10,9)
Optimization: -30
Answer: 4
occ(1,4,9) occ(1,5,10) occ(1,9,9) occ(1,9,3) occ(1,6,7) occ(1,10,5) occ(2,9,4) occ(3,6,10) coverage(32) occ(10,1,2) occ(16,1,5) occ(25,1,4) occ(30,1,6) occ(35,1,9) occ(41,1,8) occ(95,1,7) occ(11,2,6) occ(14,2,3) occ(23,2,2) occ(28,2,4) occ(31,2,8) occ(37,2,7) occ(43,2,10) occ(93,2,9) occ(8,3,3) occ(9,3,4) occ(12,3,1) occ(18,3,6) occ(26,3,2) occ(27,3,5) occ(33,3,10) occ(39,3,9) occ(45,3,8) occ(7,4,6) occ(13,4,5) occ(21,4,1) occ(22,4,3) occ(29,4,7) occ(91,4,10) occ(5,5,8) occ(6,5,4) occ(15,5,3) occ(20,5,5) occ(24,5,1) occ(47,5,9) occ(19,6,2) occ(89,6,9) occ(4,7,5) occ(17,7,4) occ(49,7,10) occ(63,7,1) occ(75,7,9) occ(51,8,8) occ(61,8,3) occ(81,8,9) occ(87,8,10) occ(55,9,5) occ(59,9,1) occ(65,9,2) occ(69,9,6) occ(73,9,10) occ(77,9,8) occ(83,9,7) occ(53,10,7) occ(57,10,3) occ(67,10,4) occ(71,10,8) occ(79,10,10) occ(85,10,9)
Optimization: -32
Answer: 5
occ(1,4,9) occ(1,5,10) occ(1,9,9) occ(1,9,3) occ(1,6,7) occ(1,10,5) occ(2,9,4) occ(3,6,10) coverage(34) occ(10,1,2) occ(16,1,5) occ(30,1,6) occ(35,1,9) occ(41,1,8) occ(95,1,7) occ(11,2,6) occ(14,2,3) occ(28,2,4) occ(31,2,8) occ(37,2,7) occ(43,2,10) occ(93,2,9) occ(8,3,3) occ(9,3,4) occ(12,3,1) occ(18,3,6) occ(26,3,2) occ(32,3,5) occ(33,3,10) occ(39,3,9) occ(45,3,8) occ(7,4,6) occ(13,4,5) occ(17,4,1) occ(22,4,3) occ(29,4,7) occ(91,4,10) occ(5,5,8) occ(6,5,4) occ(15,5,3) occ(20,5,5) occ(24,5,1) occ(47,5,9) occ(19,6,2) occ(27,6,6) occ(55,6,4) occ(89,6,9) occ(4,7,5) occ(21,7,4) occ(49,7,10) occ(53,7,6) occ(57,7,2) occ(63,7,1) occ(75,7,9) occ(25,8,7) occ(51,8,8) occ(61,8,3) occ(81,8,9) occ(87,8,10) occ(23,9,5) occ(59,9,1) occ(65,9,2) occ(69,9,6) occ(73,9,10) occ(77,9,8) occ(83,9,7) occ(67,10,4) occ(71,10,8) occ(79,10,10) occ(85,10,9)
Optimization: -34
Answer: 6
occ(1,4,9) occ(1,5,10) occ(1,9,9) occ(1,9,3) occ(1,6,7) occ(1,10,5) occ(2,9,4) occ(3,6,10) coverage(36) occ(10,1,2) occ(16,1,5) occ(30,1,6) occ(35,1,9) occ(41,1,8) occ(95,1,7) occ(11,2,6) occ(14,2,3) occ(28,2,4) occ(31,2,8) occ(37,2,7) occ(43,2,10) occ(93,2,9) occ(8,3,3) occ(9,3,4) occ(12,3,1) occ(18,3,6) occ(26,3,2) occ(32,3,5) occ(33,3,10) occ(39,3,9) occ(45,3,8) occ(7,4,6) occ(13,4,5) occ(17,4,1) occ(22,4,3) occ(29,4,7) occ(91,4,10) occ(5,5,8) occ(6,5,4) occ(15,5,3) occ(20,5,5) occ(24,5,1) occ(34,5,6) occ(47,5,9) occ(19,6,2) occ(27,6,6) occ(55,6,4) occ(89,6,9) occ(4,7,5) occ(21,7,4) occ(49,7,10) occ(53,7,6) occ(57,7,2) occ(63,7,1) occ(75,7,9) occ(25,8,7) occ(51,8,8) occ(61,8,3) occ(81,8,9) occ(87,8,10) occ(23,9,5) occ(59,9,1) occ(65,9,2) occ(69,9,6) occ(73,9,10) occ(77,9,8) occ(83,9,7) occ(67,10,4) occ(71,10,8) occ(79,10,10) occ(85,10,9)
Optimization: -36
Answer: 7
occ(1,4,9) occ(1,5,10) occ(1,9,9) occ(1,9,3) occ(1,6,7) occ(1,10,5) occ(2,9,4) occ(3,6,10) coverage(38) occ(10,1,2) occ(16,1,5) occ(30,1,6) occ(34,1,4) occ(35,1,9) occ(41,1,8) occ(95,1,7) occ(11,2,6) occ(14,2,3) occ(28,2,4) occ(31,2,8) occ(36,2,2) occ(37,2,7) occ(43,2,10) occ(93,2,9) occ(8,3,3) occ(9,3,4) occ(12,3,1) occ(18,3,6) occ(26,3,2) occ(32,3,5) occ(33,3,10) occ(39,3,9) occ(45,3,8) occ(7,4,6) occ(13,4,5) occ(17,4,1) occ(22,4,3) occ(29,4,7) occ(91,4,10) occ(5,5,8) occ(6,5,4) occ(15,5,3) occ(20,5,5) occ(24,5,1) occ(47,5,9) occ(19,6,2) occ(27,6,6) occ(55,6,4) occ(89,6,9) occ(4,7,5) occ(21,7,4) occ(49,7,10) occ(53,7,6) occ(57,7,2) occ(63,7,1) occ(75,7,9) occ(25,8,7) occ(51,8,8) occ(61,8,3) occ(81,8,9) occ(87,8,10) occ(23,9,5) occ(59,9,1) occ(65,9,2) occ(69,9,6) occ(73,9,10) occ(77,9,8) occ(83,9,7) occ(67,10,4) occ(71,10,8) occ(79,10,10) occ(85,10,9)
Optimization: -38
Answer: 8
occ(1,4,9) occ(1,5,10) occ(1,9,9) occ(1,9,3) occ(1,6,7) occ(1,10,5) occ(2,9,4) occ(3,6,10) coverage(40) occ(10,1,2) occ(16,1,5) occ(30,1,6) occ(34,1,4) occ(35,1,9) occ(41,1,8) occ(95,1,7) occ(11,2,6) occ(14,2,3) occ(28,2,4) occ(31,2,8) occ(36,2,2) occ(37,2,7) occ(43,2,10) occ(93,2,9) occ(8,3,3) occ(9,3,4) occ(12,3,1) occ(18,3,6) occ(26,3,2) occ(32,3,5) occ(33,3,10) occ(39,3,9) occ(45,3,8) occ(7,4,6) occ(13,4,5) occ(22,4,3) occ(29,4,7) occ(38,4,1) occ(91,4,10) occ(5,5,8) occ(6,5,4) occ(15,5,3) occ(20,5,5) occ(24,5,1) occ(47,5,9) occ(17,6,5) occ(27,6,6) occ(55,6,4) occ(89,6,9) occ(4,7,5) occ(49,7,10) occ(53,7,6) occ(57,7,2) occ(63,7,1) occ(75,7,9) occ(19,8,4) occ(25,8,7) occ(51,8,8) occ(61,8,3) occ(81,8,9) occ(87,8,10) occ(23,9,5) occ(59,9,1) occ(65,9,2) occ(69,9,6) occ(73,9,10) occ(77,9,8) occ(83,9,7) occ(21,10,3) occ(67,10,4) occ(71,10,8) occ(79,10,10) occ(85,10,9)
Optimization: -40
Answer: 9
occ(1,4,9) occ(1,5,10) occ(1,9,9) occ(1,9,3) occ(1,6,7) occ(1,10,5) occ(2,9,4) occ(3,6,10) coverage(42) occ(10,1,2) occ(16,1,5) occ(30,1,6) occ(34,1,4) occ(35,1,9) occ(41,1,8) occ(95,1,7) occ(11,2,6) occ(14,2,3) occ(28,2,4) occ(31,2,8) occ(36,2,2) occ(37,2,7) occ(43,2,10) occ(93,2,9) occ(8,3,3) occ(9,3,4) occ(12,3,1) occ(18,3,6) occ(26,3,2) occ(32,3,5) occ(33,3,10) occ(39,3,9) occ(45,3,8) occ(7,4,6) occ(13,4,5) occ(22,4,3) occ(29,4,7) occ(38,4,1) occ(91,4,10) occ(5,5,8) occ(6,5,4) occ(15,5,3) occ(20,5,5) occ(24,5,1) occ(47,5,9) occ(17,6,5) occ(27,6,6) occ(40,6,2) occ(55,6,4) occ(89,6,9) occ(4,7,5) occ(49,7,10) occ(53,7,6) occ(57,7,2) occ(63,7,1) occ(75,7,9) occ(19,8,4) occ(25,8,7) occ(51,8,8) occ(61,8,3) occ(81,8,9) occ(87,8,10) occ(23,9,5) occ(59,9,1) occ(65,9,2) occ(69,9,6) occ(73,9,10) occ(77,9,8) occ(83,9,7) occ(21,10,3) occ(67,10,4) occ(71,10,8) occ(79,10,10) occ(85,10,9)
Optimization: -42
Answer: 10
occ(1,4,9) occ(1,5,10) occ(1,9,9) occ(1,9,3) occ(1,6,7) occ(1,10,5) occ(2,9,4) occ(3,6,10) coverage(44) occ(10,1,2) occ(16,1,5) occ(30,1,6) occ(34,1,4) occ(35,1,9) occ(41,1,8) occ(95,1,7) occ(11,2,6) occ(14,2,3) occ(28,2,4) occ(31,2,8) occ(36,2,2) occ(37,2,7) occ(43,2,10) occ(93,2,9) occ(8,3,3) occ(9,3,4) occ(12,3,1) occ(18,3,6) occ(26,3,2) occ(32,3,5) occ(33,3,10) occ(39,3,9) occ(45,3,8) occ(7,4,6) occ(13,4,5) occ(22,4,3) occ(29,4,7) occ(38,4,1) occ(91,4,10) occ(5,5,8) occ(6,5,4) occ(15,5,3) occ(20,5,5) occ(24,5,1) occ(47,5,9) occ(17,6,5) occ(27,6,6) occ(40,6,2) occ(55,6,4) occ(89,6,9) occ(4,7,5) occ(49,7,10) occ(53,7,6) occ(57,7,2) occ(63,7,1) occ(75,7,9) occ(19,8,4) occ(25,8,7) occ(42,8,1) occ(51,8,8) occ(61,8,3) occ(81,8,9) occ(87,8,10) occ(23,9,5) occ(59,9,1) occ(65,9,2) occ(69,9,6) occ(73,9,10) occ(77,9,8) occ(83,9,7) occ(21,10,3) occ(67,10,4) occ(71,10,8) occ(79,10,10) occ(85,10,9)
Optimization: -44
Answer: 11
occ(1,4,9) occ(1,5,10) occ(1,9,9) occ(1,9,3) occ(1,6,7) occ(1,10,5) occ(2,9,4) occ(3,6,10) coverage(46) occ(10,1,2) occ(16,1,5) occ(30,1,6) occ(34,1,4) occ(35,1,9) occ(41,1,8) occ(95,1,7) occ(11,2,6) occ(14,2,3) occ(28,2,4) occ(31,2,8) occ(36,2,2) occ(37,2,7) occ(43,2,10) occ(93,2,9) occ(8,3,3) occ(9,3,4) occ(12,3,1) occ(18,3,6) occ(26,3,2) occ(32,3,5) occ(33,3,10) occ(39,3,9) occ(45,3,8) occ(7,4,6) occ(13,4,5) occ(22,4,3) occ(29,4,7) occ(38,4,1) occ(91,4,10) occ(5,5,8) occ(6,5,4) occ(15,5,3) occ(20,5,5) occ(24,5,1) occ(47,5,9) occ(17,6,5) occ(27,6,6) occ(40,6,2) occ(55,6,4) occ(89,6,9) occ(4,7,5) occ(49,7,10) occ(53,7,6) occ(57,7,2) occ(63,7,1) occ(75,7,9) occ(19,8,4) occ(25,8,7) occ(42,8,1) occ(51,8,8) occ(61,8,3) occ(81,8,9) occ(87,8,10) occ(23,9,5) occ(59,9,1) occ(65,9,2) occ(69,9,6) occ(73,9,10) occ(77,9,8) occ(83,9,7) occ(21,10,3) occ(44,10,2) occ(67,10,4) occ(71,10,8) occ(79,10,10) occ(85,10,9)
Optimization: -46
Answer: 12
occ(1,4,9) occ(1,5,10) occ(1,9,9) occ(1,9,3) occ(1,6,7) occ(1,10,5) occ(2,9,4) occ(3,6,10) coverage(48) occ(10,1,2) occ(16,1,5) occ(30,1,6) occ(34,1,4) occ(35,1,9) occ(41,1,8) occ(95,1,7) occ(11,2,6) occ(14,2,3) occ(28,2,4) occ(31,2,8) occ(36,2,2) occ(37,2,7) occ(43,2,10) occ(93,2,9) occ(8,3,3) occ(9,3,4) occ(12,3,1) occ(18,3,6) occ(26,3,2) occ(32,3,5) occ(33,3,10) occ(39,3,9) occ(45,3,8) occ(7,4,6) occ(13,4,5) occ(22,4,3) occ(29,4,7) occ(38,4,1) occ(91,4,10) occ(5,5,8) occ(6,5,4) occ(15,5,3) occ(20,5,5) occ(24,5,1) occ(47,5,9) occ(17,6,5) occ(27,6,6) occ(40,6,2) occ(46,6,1) occ(55,6,4) occ(89,6,9) occ(4,7,5) occ(44,7,3) occ(49,7,10) occ(53,7,6) occ(57,7,2) occ(63,7,1) occ(75,7,9) occ(19,8,4) occ(25,8,7) occ(42,8,1) occ(51,8,8) occ(61,8,3) occ(81,8,9) occ(87,8,10) occ(23,9,5) occ(59,9,1) occ(65,9,2) occ(69,9,6) occ(73,9,10) occ(77,9,8) occ(83,9,7) occ(21,10,3) occ(67,10,4) occ(71,10,8) occ(79,10,10) occ(85,10,9)
Optimization: -48
Answer: 13
occ(1,4,9) occ(1,5,10) occ(1,9,9) occ(1,9,3) occ(1,6,7) occ(1,10,5) occ(2,9,4) occ(3,6,10) coverage(50) occ(10,1,2) occ(16,1,5) occ(30,1,6) occ(34,1,4) occ(35,1,9) occ(41,1,8) occ(95,1,7) occ(11,2,6) occ(14,2,3) occ(28,2,4) occ(31,2,8) occ(36,2,2) occ(37,2,7) occ(43,2,10) occ(93,2,9) occ(8,3,3) occ(9,3,4) occ(12,3,1) occ(18,3,6) occ(26,3,2) occ(32,3,5) occ(33,3,10) occ(39,3,9) occ(45,3,8) occ(7,4,6) occ(13,4,5) occ(22,4,3) occ(29,4,7) occ(38,4,1) occ(48,4,2) occ(91,4,10) occ(5,5,8) occ(6,5,4) occ(15,5,3) occ(20,5,5) occ(24,5,1) occ(47,5,9) occ(17,6,5) occ(27,6,6) occ(40,6,2) occ(46,6,1) occ(55,6,4) occ(89,6,9) occ(4,7,5) occ(44,7,3) occ(49,7,10) occ(53,7,6) occ(57,7,2) occ(63,7,1) occ(75,7,9) occ(19,8,4) occ(25,8,7) occ(42,8,1) occ(51,8,8) occ(61,8,3) occ(81,8,9) occ(87,8,10) occ(23,9,5) occ(59,9,1) occ(65,9,2) occ(69,9,6) occ(73,9,10) occ(77,9,8) occ(83,9,7) occ(21,10,3) occ(67,10,4) occ(71,10,8) occ(79,10,10) occ(85,10,9)
Optimization: -50
Answer: 14
occ(1,4,9) occ(1,5,10) occ(1,9,9) occ(1,9,3) occ(1,6,7) occ(1,10,5) occ(2,9,4) occ(3,6,10) coverage(52) occ(10,1,2) occ(16,1,5) occ(30,1,6) occ(34,1,4) occ(35,1,9) occ(41,1,8) occ(95,1,7) occ(11,2,6) occ(14,2,3) occ(28,2,4) occ(31,2,8) occ(36,2,2) occ(37,2,7) occ(43,2,10) occ(50,2,1) occ(93,2,9) occ(8,3,3) occ(9,3,4) occ(12,3,1) occ(18,3,6) occ(26,3,2) occ(32,3,5) occ(33,3,10) occ(39,3,9) occ(45,3,8) occ(7,4,6) occ(13,4,5) occ(22,4,3) occ(29,4,7) occ(38,4,1) occ(48,4,2) occ(91,4,10) occ(5,5,8) occ(6,5,4) occ(15,5,3) occ(20,5,5) occ(24,5,1) occ(47,5,9) occ(17,6,5) occ(27,6,6) occ(40,6,2) occ(46,6,1) occ(55,6,4) occ(89,6,9) occ(4,7,5) occ(44,7,3) occ(49,7,10) occ(53,7,6) occ(57,7,2) occ(63,7,1) occ(75,7,9) occ(19,8,4) occ(25,8,7) occ(42,8,1) occ(51,8,8) occ(61,8,3) occ(81,8,9) occ(87,8,10) occ(23,9,5) occ(59,9,1) occ(65,9,2) occ(69,9,6) occ(73,9,10) occ(77,9,8) occ(83,9,7) occ(21,10,3) occ(67,10,4) occ(71,10,8) occ(79,10,10) occ(85,10,9)
Optimization: -52
Answer: 15
occ(1,4,9) occ(1,5,10) occ(1,9,9) occ(1,9,3) occ(1,6,7) occ(1,10,5) occ(2,9,4) occ(3,6,10) coverage(54) occ(10,1,2) occ(16,1,5) occ(30,1,6) occ(34,1,4) occ(35,1,9) occ(41,1,8) occ(52,1,3) occ(95,1,7) occ(11,2,6) occ(14,2,3) occ(28,2,4) occ(31,2,8) occ(36,2,2) occ(37,2,7) occ(43,2,10) occ(50,2,1) occ(93,2,9) occ(8,3,3) occ(9,3,4) occ(12,3,1) occ(18,3,6) occ(26,3,2) occ(32,3,5) occ(33,3,10) occ(39,3,9) occ(45,3,8) occ(7,4,6) occ(13,4,5) occ(22,4,3) occ(29,4,7) occ(38,4,1) occ(48,4,2) occ(91,4,10) occ(5,5,8) occ(6,5,4) occ(15,5,3) occ(20,5,5) occ(24,5,1) occ(47,5,9) occ(17,6,5) occ(27,6,6) occ(40,6,2) occ(46,6,1) occ(55,6,4) occ(89,6,9) occ(4,7,5) occ(44,7,3) occ(49,7,10) occ(53,7,6) occ(57,7,2) occ(63,7,1) occ(75,7,9) occ(19,8,4) occ(25,8,7) occ(42,8,1) occ(51,8,8) occ(61,8,3) occ(81,8,9) occ(87,8,10) occ(23,9,5) occ(59,9,1) occ(65,9,2) occ(69,9,6) occ(73,9,10) occ(77,9,8) occ(83,9,7) occ(21,10,3) occ(67,10,4) occ(71,10,8) occ(79,10,10) occ(85,10,9)
Optimization: -54
Answer: 16
occ(1,4,9) occ(1,5,10) occ(1,9,9) occ(1,9,3) occ(1,6,7) occ(1,10,5) occ(2,9,4) occ(3,6,10) coverage(56) occ(10,1,2) occ(16,1,5) occ(30,1,6) occ(34,1,4) occ(35,1,9) occ(41,1,8) occ(52,1,3) occ(95,1,7) occ(11,2,6) occ(14,2,3) occ(28,2,4) occ(31,2,8) occ(36,2,2) occ(37,2,7) occ(43,2,10) occ(50,2,1) occ(54,2,5) occ(93,2,9) occ(8,3,3) occ(9,3,4) occ(12,3,1) occ(18,3,6) occ(26,3,2) occ(32,3,5) occ(33,3,10) occ(39,3,9) occ(45,3,8) occ(7,4,6) occ(13,4,5) occ(22,4,3) occ(29,4,7) occ(38,4,1) occ(48,4,2) occ(91,4,10) occ(5,5,8) occ(6,5,4) occ(15,5,3) occ(20,5,5) occ(24,5,1) occ(47,5,9) occ(17,6,5) occ(27,6,6) occ(40,6,2) occ(46,6,1) occ(55,6,4) occ(89,6,9) occ(4,7,5) occ(44,7,3) occ(49,7,10) occ(53,7,6) occ(57,7,2) occ(63,7,1) occ(75,7,9) occ(19,8,4) occ(25,8,7) occ(42,8,1) occ(51,8,8) occ(61,8,3) occ(81,8,9) occ(87,8,10) occ(23,9,5) occ(59,9,1) occ(65,9,2) occ(69,9,6) occ(73,9,10) occ(77,9,8) occ(83,9,7) occ(21,10,3) occ(67,10,4) occ(71,10,8) occ(79,10,10) occ(85,10,9)
Optimization: -56
Answer: 17
occ(1,4,9) occ(1,5,10) occ(1,9,9) occ(1,9,3) occ(1,6,7) occ(1,10,5) occ(2,9,4) occ(3,6,10) coverage(58) occ(10,1,2) occ(16,1,5) occ(30,1,6) occ(34,1,4) occ(35,1,9) occ(41,1,8) occ(52,1,3) occ(95,1,7) occ(11,2,6) occ(14,2,3) occ(28,2,4) occ(31,2,8) occ(36,2,2) occ(37,2,7) occ(43,2,10) occ(50,2,1) occ(54,2,5) occ(93,2,9) occ(8,3,3) occ(9,3,4) occ(12,3,1) occ(18,3,6) occ(26,3,2) occ(32,3,5) occ(33,3,10) occ(39,3,9) occ(45,3,8) occ(56,3,7) occ(7,4,6) occ(13,4,5) occ(22,4,3) occ(29,4,7) occ(38,4,1) occ(48,4,2) occ(91,4,10) occ(5,5,8) occ(6,5,4) occ(15,5,3) occ(20,5,5) occ(24,5,1) occ(47,5,9) occ(17,6,5) occ(27,6,6) occ(40,6,2) occ(46,6,1) occ(55,6,4) occ(89,6,9) occ(4,7,5) occ(44,7,3) occ(49,7,10) occ(53,7,6) occ(57,7,2) occ(63,7,1) occ(75,7,9) occ(19,8,4) occ(25,8,7) occ(42,8,1) occ(51,8,8) occ(61,8,3) occ(81,8,9) occ(87,8,10) occ(23,9,5) occ(59,9,1) occ(65,9,2) occ(69,9,6) occ(73,9,10) occ(77,9,8) occ(83,9,7) occ(21,10,3) occ(67,10,4) occ(71,10,8) occ(79,10,10) occ(85,10,9)
Optimization: -58
Answer: 18
occ(1,4,9) occ(1,5,10) occ(1,9,9) occ(1,9,3) occ(1,6,7) occ(1,10,5) occ(2,9,4) occ(3,6,10) coverage(60) occ(10,1,2) occ(16,1,5) occ(30,1,6) occ(34,1,4) occ(35,1,9) occ(41,1,8) occ(52,1,3) occ(95,1,7) occ(11,2,6) occ(14,2,3) occ(28,2,4) occ(31,2,8) occ(36,2,2) occ(37,2,7) occ(43,2,10) occ(50,2,1) occ(54,2,5) occ(93,2,9) occ(8,3,3) occ(9,3,4) occ(12,3,1) occ(18,3,6) occ(26,3,2) occ(32,3,5) occ(33,3,10) occ(39,3,9) occ(45,3,8) occ(56,3,7) occ(7,4,6) occ(13,4,5) occ(22,4,3) occ(29,4,7) occ(38,4,1) occ(48,4,2) occ(91,4,10) occ(5,5,8) occ(6,5,4) occ(15,5,3) occ(20,5,5) occ(24,5,1) occ(47,5,9) occ(58,5,6) occ(17,6,5) occ(27,6,6) occ(40,6,2) occ(46,6,1) occ(55,6,4) occ(89,6,9) occ(4,7,5) occ(44,7,3) occ(49,7,10) occ(53,7,6) occ(57,7,2) occ(63,7,1) occ(75,7,9) occ(19,8,4) occ(25,8,7) occ(42,8,1) occ(51,8,8) occ(61,8,3) occ(81,8,9) occ(87,8,10) occ(23,9,5) occ(59,9,1) occ(65,9,2) occ(69,9,6) occ(73,9,10) occ(77,9,8) occ(83,9,7) occ(21,10,3) occ(67,10,4) occ(71,10,8) occ(79,10,10) occ(85,10,9)
Optimization: -60
Answer: 19
occ(1,4,9) occ(1,5,10) occ(1,9,9) occ(1,9,3) occ(1,6,7) occ(1,10,5) occ(2,9,4) occ(3,6,10) coverage(62) occ(10,1,2) occ(16,1,5) occ(30,1,6) occ(34,1,4) occ(35,1,9) occ(41,1,8) occ(52,1,3) occ(95,1,7) occ(11,2,6) occ(14,2,3) occ(28,2,4) occ(31,2,8) occ(36,2,2) occ(37,2,7) occ(43,2,10) occ(50,2,1) occ(54,2,5) occ(93,2,9) occ(8,3,3) occ(9,3,4) occ(12,3,1) occ(18,3,6) occ(26,3,2) occ(32,3,5) occ(33,3,10) occ(39,3,9) occ(45,3,8) occ(56,3,7) occ(7,4,6) occ(13,4,5) occ(22,4,3) occ(29,4,7) occ(38,4,1) occ(48,4,2) occ(60,4,8) occ(91,4,10) occ(5,5,8) occ(6,5,4) occ(15,5,3) occ(20,5,5) occ(24,5,1) occ(47,5,9) occ(58,5,6) occ(17,6,5) occ(27,6,6) occ(40,6,2) occ(46,6,1) occ(55,6,4) occ(89,6,9) occ(4,7,5) occ(44,7,3) occ(49,7,10) occ(53,7,6) occ(57,7,2) occ(63,7,1) occ(75,7,9) occ(19,8,4) occ(25,8,7) occ(42,8,1) occ(51,8,8) occ(61,8,3) occ(81,8,9) occ(87,8,10) occ(23,9,5) occ(59,9,1) occ(65,9,2) occ(69,9,6) occ(73,9,10) occ(77,9,8) occ(83,9,7) occ(21,10,3) occ(67,10,4) occ(71,10,8) occ(79,10,10) occ(85,10,9)
Optimization: -62
Answer: 20
occ(1,4,9) occ(1,5,10) occ(1,9,9) occ(1,9,3) occ(1,6,7) occ(1,10,5) occ(2,9,4) occ(3,6,10) coverage(64) occ(10,1,2) occ(16,1,5) occ(30,1,6) occ(34,1,4) occ(35,1,9) occ(41,1,8) occ(52,1,3) occ(95,1,7) occ(11,2,6) occ(14,2,3) occ(28,2,4) occ(31,2,8) occ(36,2,2) occ(37,2,7) occ(43,2,10) occ(50,2,1) occ(54,2,5) occ(93,2,9) occ(8,3,3) occ(9,3,4) occ(12,3,1) occ(18,3,6) occ(26,3,2) occ(32,3,5) occ(33,3,10) occ(39,3,9) occ(45,3,8) occ(56,3,7) occ(7,4,6) occ(13,4,5) occ(22,4,3) occ(29,4,7) occ(38,4,1) occ(48,4,2) occ(60,4,4) occ(91,4,10) occ(5,5,8) occ(6,5,4) occ(15,5,3) occ(20,5,5) occ(24,5,1) occ(47,5,9) occ(58,5,6) occ(62,5,2) occ(17,6,5) occ(27,6,6) occ(40,6,2) occ(46,6,1) occ(55,6,4) occ(89,6,9) occ(4,7,5) occ(44,7,3) occ(49,7,10) occ(53,7,6) occ(57,7,2) occ(63,7,1) occ(75,7,9) occ(19,8,4) occ(25,8,7) occ(42,8,1) occ(51,8,8) occ(61,8,3) occ(81,8,9) occ(87,8,10) occ(23,9,5) occ(59,9,1) occ(65,9,2) occ(69,9,6) occ(73,9,10) occ(77,9,8) occ(83,9,7) occ(21,10,3) occ(67,10,4) occ(71,10,8) occ(79,10,10) occ(85,10,9)
Optimization: -64
Answer: 21
occ(1,4,9) occ(1,5,10) occ(1,9,9) occ(1,9,3) occ(1,6,7) occ(1,10,5) occ(2,9,4) occ(3,6,10) coverage(66) occ(30,1,6) occ(34,1,4) occ(35,1,9) occ(41,1,8) occ(52,1,3) occ(95,1,7) occ(11,2,6) occ(28,2,4) occ(31,2,8) occ(36,2,2) occ(37,2,7) occ(43,2,10) occ(50,2,1) occ(54,2,5) occ(93,2,9) occ(9,3,4) occ(18,3,6) occ(26,3,2) occ(32,3,5) occ(33,3,10) occ(39,3,9) occ(45,3,8) occ(56,3,7) occ(64,3,1) occ(7,4,6) occ(13,4,5) occ(22,4,3) occ(29,4,7) occ(38,4,1) occ(48,4,2) occ(60,4,4) occ(91,4,10) occ(5,5,8) occ(15,5,3) occ(16,5,7) occ(20,5,5) occ(24,5,1) occ(47,5,9) occ(58,5,6) occ(62,5,2) occ(6,6,3) occ(17,6,5) occ(27,6,6) occ(40,6,2) occ(46,6,1) occ(55,6,4) occ(89,6,9) occ(4,7,5) occ(10,7,4) occ(14,7,8) occ(44,7,3) occ(49,7,10) occ(53,7,6) occ(57,7,2) occ(63,7,1) occ(75,7,9) occ(8,8,2) occ(12,8,6) occ(19,8,4) occ(25,8,7) occ(42,8,1) occ(51,8,8) occ(61,8,3) occ(81,8,9) occ(87,8,10) occ(23,9,5) occ(59,9,1) occ(65,9,2) occ(69,9,6) occ(73,9,10) occ(77,9,8) occ(83,9,7) occ(21,10,3) occ(67,10,4) occ(71,10,8) occ(79,10,10) occ(85,10,9)
Optimization: -66
Answer: 22
occ(1,4,9) occ(1,5,10) occ(1,9,9) occ(1,9,3) occ(1,6,7) occ(1,10,5) occ(2,9,4) occ(3,6,10) coverage(72) occ(30,1,6) occ(34,1,4) occ(35,1,9) occ(41,1,8) occ(52,1,3) occ(66,1,2) occ(95,1,7) occ(11,2,6) occ(28,2,4) occ(31,2,8) occ(36,2,2) occ(37,2,7) occ(43,2,10) occ(50,2,1) occ(54,2,5) occ(93,2,9) occ(9,3,4) occ(18,3,6) occ(26,3,2) occ(32,3,5) occ(33,3,10) occ(39,3,9) occ(45,3,8) occ(56,3,7) occ(64,3,1) occ(68,3,3) occ(7,4,6) occ(13,4,5) occ(22,4,3) occ(29,4,7) occ(38,4,1) occ(48,4,2) occ(60,4,4) occ(91,4,10) occ(5,5,8) occ(15,5,3) occ(16,5,7) occ(20,5,5) occ(24,5,1) occ(47,5,9) occ(58,5,6) occ(62,5,2) occ(70,5,4) occ(6,6,3) occ(17,6,5) occ(27,6,6) occ(40,6,2) occ(46,6,1) occ(55,6,4) occ(89,6,9) occ(4,7,5) occ(10,7,4) occ(14,7,8) occ(44,7,3) occ(49,7,10) occ(53,7,6) occ(57,7,2) occ(63,7,1) occ(75,7,9) occ(8,8,2) occ(12,8,6) occ(19,8,4) occ(25,8,7) occ(42,8,1) occ(51,8,8) occ(61,8,3) occ(81,8,9) occ(87,8,10) occ(23,9,5) occ(59,9,1) occ(65,9,2) occ(69,9,6) occ(73,9,10) occ(77,9,8) occ(83,9,7) occ(21,10,3) occ(67,10,4) occ(71,10,8) occ(79,10,10) occ(85,10,9)
Optimization: -72
Answer: 23
occ(1,4,9) occ(1,5,10) occ(1,9,9) occ(1,9,3) occ(1,6,7) occ(1,10,5) occ(2,9,4) occ(3,6,10) coverage(80) occ(19,1,1) occ(23,1,5) occ(29,1,6) occ(34,1,4) occ(35,1,9) occ(41,1,8) occ(52,1,3) occ(66,1,2) occ(11,2,6) occ(21,2,3) occ(27,2,4) occ(31,2,8) occ(36,2,2) occ(37,2,7) occ(43,2,10) occ(50,2,1) occ(54,2,5) occ(9,3,4) occ(17,3,2) occ(25,3,6) occ(32,3,5) occ(33,3,10) occ(39,3,9) occ(45,3,8) occ(56,3,7) occ(64,3,1) occ(68,3,3) occ(7,4,6) occ(13,4,5) occ(30,4,7) occ(38,4,1) occ(48,4,2) occ(60,4,4) occ(5,5,8) occ(15,5,3) occ(16,5,7) occ(47,5,9) occ(58,5,6) occ(62,5,2) occ(70,5,4) occ(6,6,3) occ(18,6,5) occ(28,6,8) occ(40,6,2) occ(46,6,1) occ(55,6,4) occ(72,6,6) occ(78,6,9) occ(4,7,5) occ(10,7,4) occ(14,7,8) occ(44,7,3) occ(49,7,10) occ(53,7,6) occ(57,7,2) occ(63,7,1) occ(75,7,9) occ(76,7,7) occ(8,8,2) occ(12,8,6) occ(20,8,4) occ(26,8,7) occ(42,8,1) occ(51,8,8) occ(61,8,3) occ(74,8,5) occ(81,8,9) occ(87,8,10) occ(24,9,5) occ(59,9,1) occ(65,9,2) occ(69,9,6) occ(73,9,10) occ(77,9,8) occ(83,9,7) occ(22,10,3) occ(67,10,4) occ(71,10,8) occ(79,10,10) occ(85,10,9)
Optimization: -80
Answer: 24
occ(1,4,9) occ(1,5,10) occ(1,9,9) occ(1,9,3) occ(1,6,7) occ(1,10,5) occ(2,9,4) occ(3,6,10) coverage(82) occ(19,1,1) occ(23,1,5) occ(29,1,6) occ(34,1,4) occ(35,1,9) occ(41,1,8) occ(52,1,3) occ(66,1,2) occ(11,2,6) occ(21,2,3) occ(27,2,4) occ(31,2,8) occ(36,2,2) occ(37,2,7) occ(43,2,10) occ(50,2,1) occ(54,2,5) occ(9,3,4) occ(17,3,2) occ(25,3,6) occ(32,3,5) occ(33,3,10) occ(39,3,9) occ(45,3,8) occ(56,3,7) occ(64,3,1) occ(68,3,3) occ(7,4,6) occ(13,4,5) occ(30,4,7) occ(38,4,1) occ(48,4,2) occ(60,4,4) occ(80,4,10) occ(5,5,8) occ(15,5,3) occ(16,5,7) occ(47,5,9) occ(58,5,6) occ(62,5,2) occ(70,5,4) occ(6,6,3) occ(18,6,5) occ(28,6,8) occ(40,6,2) occ(46,6,1) occ(55,6,4) occ(72,6,6) occ(78,6,9) occ(4,7,5) occ(10,7,4) occ(14,7,8) occ(44,7,3) occ(49,7,10) occ(53,7,6) occ(57,7,2) occ(63,7,1) occ(75,7,9) occ(76,7,7) occ(8,8,2) occ(12,8,6) occ(20,8,4) occ(26,8,7) occ(42,8,1) occ(51,8,8) occ(61,8,3) occ(74,8,5) occ(81,8,9) occ(87,8,10) occ(24,9,5) occ(59,9,1) occ(65,9,2) occ(69,9,6) occ(73,9,10) occ(77,9,8) occ(83,9,7) occ(22,10,3) occ(67,10,4) occ(71,10,8) occ(79,10,10) occ(85,10,9)
Optimization: -82
Answer: 25
occ(1,4,9) occ(1,5,10) occ(1,9,9) occ(1,9,3) occ(1,6,7) occ(1,10,5) occ(2,9,4) occ(3,6,10) coverage(84) occ(19,1,1) occ(23,1,5) occ(29,1,6) occ(34,1,4) occ(35,1,9) occ(41,1,8) occ(52,1,3) occ(66,1,2) occ(11,2,6) occ(21,2,3) occ(27,2,4) occ(31,2,8) occ(36,2,2) occ(37,2,7) occ(43,2,10) occ(50,2,1) occ(54,2,5) occ(82,2,9) occ(9,3,4) occ(17,3,2) occ(25,3,6) occ(32,3,5) occ(33,3,10) occ(39,3,9) occ(45,3,8) occ(56,3,7) occ(64,3,1) occ(68,3,3) occ(7,4,6) occ(13,4,5) occ(30,4,7) occ(38,4,1) occ(48,4,2) occ(60,4,4) occ(80,4,10) occ(5,5,8) occ(15,5,3) occ(16,5,7) occ(47,5,9) occ(58,5,6) occ(62,5,2) occ(70,5,4) occ(6,6,3) occ(18,6,5) occ(28,6,8) occ(40,6,2) occ(46,6,1) occ(55,6,4) occ(72,6,6) occ(78,6,9) occ(4,7,5) occ(10,7,4) occ(14,7,8) occ(44,7,3) occ(49,7,10) occ(53,7,6) occ(57,7,2) occ(63,7,1) occ(75,7,9) occ(76,7,7) occ(8,8,2) occ(12,8,6) occ(20,8,4) occ(26,8,7) occ(42,8,1) occ(51,8,8) occ(61,8,3) occ(74,8,5) occ(81,8,9) occ(87,8,10) occ(24,9,5) occ(59,9,1) occ(65,9,2) occ(69,9,6) occ(73,9,10) occ(77,9,8) occ(83,9,7) occ(22,10,3) occ(67,10,4) occ(71,10,8) occ(79,10,10) occ(85,10,9)
Optimization: -84
Answer: 26
occ(1,4,9) occ(1,5,10) occ(1,9,9) occ(1,9,3) occ(1,6,7) occ(1,10,5) occ(2,9,4) occ(3,6,10) coverage(86) occ(19,1,1) occ(23,1,5) occ(29,1,6) occ(34,1,4) occ(35,1,9) occ(41,1,8) occ(52,1,3) occ(66,1,2) occ(11,2,6) occ(21,2,3) occ(27,2,4) occ(31,2,8) occ(36,2,2) occ(37,2,7) occ(43,2,10) occ(50,2,1) occ(54,2,5) occ(82,2,9) occ(9,3,4) occ(17,3,2) occ(25,3,6) occ(32,3,5) occ(33,3,10) occ(39,3,9) occ(45,3,8) occ(56,3,7) occ(64,3,1) occ(68,3,3) occ(7,4,6) occ(13,4,5) occ(30,4,7) occ(38,4,1) occ(48,4,2) occ(60,4,4) occ(80,4,10) occ(84,4,8) occ(5,5,8) occ(15,5,3) occ(16,5,7) occ(47,5,9) occ(58,5,6) occ(62,5,2) occ(70,5,4) occ(6,6,3) occ(18,6,5) occ(28,6,8) occ(40,6,2) occ(46,6,1) occ(55,6,4) occ(72,6,6) occ(78,6,9) occ(4,7,5) occ(10,7,4) occ(14,7,8) occ(44,7,3) occ(49,7,10) occ(53,7,6) occ(57,7,2) occ(63,7,1) occ(75,7,9) occ(76,7,7) occ(8,8,2) occ(12,8,6) occ(20,8,4) occ(26,8,7) occ(42,8,1) occ(51,8,8) occ(61,8,3) occ(74,8,5) occ(81,8,9) occ(87,8,10) occ(24,9,5) occ(59,9,1) occ(65,9,2) occ(69,9,6) occ(73,9,10) occ(77,9,8) occ(83,9,7) occ(22,10,3) occ(67,10,4) occ(71,10,8) occ(79,10,10) occ(85,10,9)
Optimization: -86
Answer: 27
occ(1,4,9) occ(1,5,10) occ(1,9,9) occ(1,9,3) occ(1,6,7) occ(1,10,5) occ(2,9,4) occ(3,6,10) coverage(87) occ(14,1,6) occ(19,1,9) occ(25,1,8) occ(29,1,4) occ(37,1,2) occ(60,1,7) occ(64,1,3) occ(13,2,7) occ(23,2,10) occ(27,2,6) occ(31,2,2) occ(41,2,3) occ(58,2,9) occ(62,2,5) occ(63,2,4) occ(66,2,1) occ(11,3,9) occ(12,3,5) occ(16,3,7) occ(17,3,10) occ(21,3,8) occ(35,3,3) occ(39,3,1) occ(42,3,6) occ(61,3,2) occ(78,3,4) occ(15,4,8) occ(26,4,7) occ(33,4,1) occ(43,4,4) occ(56,4,10) occ(65,4,3) occ(68,4,2) occ(76,4,6) occ(82,4,5) occ(9,5,8) occ(10,5,4) occ(18,5,6) occ(28,5,9) occ(40,5,5) occ(44,5,7) occ(45,5,2) occ(59,5,1) occ(80,5,3) occ(6,6,3) occ(20,6,8) occ(24,6,6) occ(54,6,9) occ(67,6,2) occ(70,6,1) occ(74,6,5) occ(84,6,4) occ(7,7,7) occ(8,7,5) occ(30,7,10) occ(38,7,4) occ(46,7,6) occ(47,7,1) occ(57,7,2) occ(72,7,3) occ(83,7,9) occ(4,8,2) occ(5,8,9) occ(22,8,7) occ(32,8,8) occ(36,8,6) occ(51,8,4) occ(52,8,10) occ(69,8,1) occ(73,8,3) occ(86,8,5) occ(48,9,7) occ(49,9,2) occ(55,9,1) occ(77,9,6) occ(81,9,10) occ(85,9,8) occ(34,10,7) occ(50,10,9) occ(53,10,3) occ(71,10,2) occ(75,10,4) occ(79,10,8)
Optimization: -87
Answer: 28
occ(1,4,9) occ(1,5,10) occ(1,9,9) occ(1,9,3) occ(1,6,7) occ(1,10,5) occ(2,9,4) occ(3,6,10) coverage(88) occ(14,1,6) occ(21,1,8) occ(29,1,4) occ(37,1,2) occ(60,1,7) occ(64,1,3) occ(16,2,8) occ(22,2,7) occ(23,2,10) occ(27,2,6) occ(31,2,2) occ(41,2,3) occ(58,2,9) occ(62,2,5) occ(63,2,4) occ(66,2,1) occ(12,3,5) occ(19,3,7) occ(20,3,9) occ(25,3,8) occ(26,3,10) occ(35,3,3) occ(39,3,1) occ(42,3,6) occ(61,3,2) occ(78,3,4) occ(18,4,7) occ(24,4,8) occ(33,4,1) occ(43,4,4) occ(56,4,10) occ(65,4,3) occ(68,4,2) occ(76,4,6) occ(82,4,5) occ(10,5,4) occ(17,5,6) occ(28,5,9) occ(40,5,5) occ(44,5,7) occ(45,5,2) occ(54,5,8) occ(59,5,1) occ(80,5,3) occ(6,6,3) occ(13,6,9) occ(48,6,8) occ(67,6,2) occ(70,6,1) occ(74,6,5) occ(84,6,4) occ(5,7,8) occ(8,7,5) occ(15,7,7) occ(30,7,10) occ(38,7,4) occ(46,7,6) occ(47,7,1) occ(52,7,9) occ(57,7,2) occ(72,7,3) occ(4,8,2) occ(11,8,10) occ(32,8,8) occ(36,8,6) occ(50,8,7) occ(51,8,4) occ(69,8,1) occ(73,8,3) occ(81,8,9) occ(86,8,5) occ(7,9,7) occ(49,9,2) occ(55,9,1) occ(77,9,6) occ(85,9,8) occ(9,10,9) occ(34,10,7) occ(53,10,3) occ(71,10,2) occ(75,10,4) occ(79,10,8) occ(83,10,10) occ(87,10,6)
Optimization: -88
Answer: 29
occ(1,4,9) occ(1,5,10) occ(1,9,9) occ(1,9,3) occ(1,6,7) occ(1,10,5) occ(2,9,4) occ(3,6,10) coverage(89) occ(32,1,5) occ(36,1,7) occ(69,1,6) occ(73,1,8) occ(77,1,10) occ(82,1,4) occ(83,1,9) occ(12,2,2) occ(18,2,5) occ(30,2,3) occ(38,2,9) occ(64,2,4) occ(78,2,1) occ(79,2,8) occ(84,2,6) occ(85,2,7) occ(88,2,10) occ(14,3,4) occ(28,3,1) occ(34,3,6) occ(66,3,2) occ(67,3,5) occ(71,3,7) occ(75,3,9) occ(80,3,3) occ(81,3,10) occ(86,3,8) occ(10,4,1) occ(16,4,6) occ(20,4,4) occ(26,4,3) occ(29,4,7) occ(40,4,10) occ(62,4,5) occ(76,4,2) occ(87,4,8) occ(5,5,8) occ(22,5,2) occ(27,5,9) occ(33,5,4) occ(43,5,3) occ(52,5,5) occ(60,5,7) occ(65,5,6) occ(68,5,1) occ(8,6,2) occ(23,6,8) occ(24,6,4) occ(31,6,6) occ(41,6,5) occ(42,6,9) occ(70,6,3) occ(74,6,1) occ(7,7,9) occ(25,7,10) occ(35,7,3) occ(39,7,7) occ(45,7,2) occ(50,7,6) occ(54,7,4) occ(58,7,8) occ(63,7,5) occ(6,8,1) occ(13,8,7) occ(21,8,9) occ(37,8,5) occ(44,8,10) occ(49,8,3) occ(55,8,4) occ(56,8,6) occ(72,8,2) occ(9,9,10) occ(17,9,8) occ(47,9,1) occ(48,9,7) occ(51,9,5) occ(57,9,2) occ(61,9,6) occ(4,10,2) occ(11,10,8) occ(15,10,6) occ(19,10,10) occ(46,10,9) occ(53,10,3) occ(59,10,4)
Optimization: -89
Answer: 30
occ(1,4,9) occ(1,5,10) occ(1,9,9) occ(1,9,3) occ(1,6,7) occ(1,10,5) occ(2,9,4) occ(3,6,10) coverage(90) occ(24,1,5) occ(30,1,2) occ(34,1,6) occ(64,1,3) occ(77,1,4) occ(81,1,8) occ(86,1,10) occ(87,1,7) occ(26,2,3) occ(32,2,4) occ(38,2,9) occ(62,2,1) occ(75,2,2) occ(79,2,6) occ(82,2,7) occ(83,2,10) occ(88,2,8) occ(89,2,5) occ(10,3,10) occ(22,3,6) occ(27,3,5) occ(28,3,1) occ(36,3,7) occ(60,3,3) occ(66,3,2) occ(78,3,4) occ(84,3,9) occ(85,3,8) occ(12,4,8) occ(20,4,4) occ(25,4,7) occ(40,4,10) occ(41,4,5) occ(58,4,1) occ(73,4,3) occ(76,4,2) occ(80,4,6) occ(5,5,8) occ(8,5,9) occ(14,5,6) occ(18,5,2) occ(29,5,4) occ(43,5,7) occ(52,5,5) occ(56,5,3) occ(68,5,1) occ(16,6,4) occ(23,6,8) occ(39,6,6) occ(42,6,9) occ(45,6,5) occ(70,6,3) occ(71,6,2) occ(74,6,1) occ(6,7,8) occ(7,7,9) occ(31,7,3) occ(49,7,2) occ(50,7,6) occ(54,7,4) occ(63,7,5) occ(4,8,6) occ(13,8,7) occ(21,8,9) occ(37,8,5) occ(44,8,10) occ(47,8,4) occ(59,8,8) occ(65,8,3) occ(69,8,1) occ(72,8,2) occ(9,9,10) occ(17,9,8) occ(33,9,2) occ(48,9,7) occ(51,9,1) occ(55,9,5) occ(61,9,6) occ(11,10,8) occ(15,10,6) occ(19,10,10) occ(35,10,4) occ(46,10,9) occ(53,10,3) occ(57,10,7) occ(67,10,2)
Optimization: -90
Answer: 31
occ(1,4,9) occ(1,5,10) occ(1,9,9) occ(1,9,3) occ(1,6,7) occ(1,10,5) occ(2,9,4) occ(3,6,10) coverage(91) occ(19,1,3) occ(22,1,2) occ(30,1,4) occ(34,1,6) occ(38,1,8) occ(57,1,10) occ(63,1,9) occ(71,1,7) occ(12,2,4) occ(17,2,1) occ(28,2,2) occ(40,2,10) occ(55,2,8) occ(61,2,7) occ(69,2,9) occ(73,2,5) occ(14,3,6) occ(20,3,1) occ(21,3,2) occ(24,3,3) occ(32,3,5) occ(36,3,7) occ(42,3,8) occ(59,3,9) occ(65,3,10) occ(77,3,4) occ(10,4,3) occ(15,4,2) occ(16,4,4) occ(26,4,1) occ(44,4,10) occ(53,4,7) occ(67,4,8) occ(75,4,6) occ(78,4,5) occ(9,5,4) occ(18,5,2) occ(23,5,3) occ(45,5,6) occ(46,5,8) occ(51,5,9) occ(76,5,7) occ(79,5,5) occ(7,6,6) occ(8,6,2) occ(13,6,1) occ(25,6,5) occ(47,6,8) occ(58,6,3) occ(74,6,9) occ(80,6,4) occ(5,7,8) occ(11,7,3) occ(43,7,7) occ(48,7,9) occ(49,7,10) occ(56,7,5) occ(60,7,1) occ(66,7,6) occ(81,7,4) occ(82,7,2) occ(6,8,1) occ(27,8,4) occ(33,8,5) occ(41,8,9) occ(54,8,7) occ(62,8,3) occ(72,8,10) occ(83,8,6) occ(87,8,8) occ(88,8,2) occ(29,9,2) occ(37,9,8) occ(50,9,10) occ(64,9,5) occ(68,9,7) occ(84,9,1) occ(89,9,6) occ(4,10,2) occ(31,10,4) occ(35,10,6) occ(39,10,10) occ(52,10,8) occ(70,10,9) occ(85,10,7) occ(86,10,3) occ(90,10,1)
Optimization: -91
Answer: 32
occ(1,4,9) occ(1,5,10) occ(1,9,9) occ(1,9,3) occ(1,6,7) occ(1,10,5) occ(2,9,4) occ(3,6,10) coverage(92) occ(17,1,4) occ(21,1,8) occ(27,1,7) occ(35,1,1) occ(57,1,6) occ(65,1,10) occ(71,1,5) occ(90,1,2) occ(91,1,3) occ(15,2,2) occ(19,2,6) occ(23,2,10) occ(29,2,5) occ(33,2,3) occ(38,2,9) occ(59,2,4) occ(63,2,8) occ(69,2,7) occ(89,2,1) occ(25,3,8) occ(37,3,2) occ(42,3,10) occ(55,3,7) occ(61,3,6) occ(67,3,9) occ(73,3,4) occ(84,3,5) occ(87,3,3) occ(88,3,1) occ(7,4,6) occ(8,4,2) occ(13,4,1) occ(14,4,5) occ(31,4,4) occ(36,4,10) occ(40,4,8) occ(82,4,7) occ(86,4,3) occ(5,5,8) occ(10,5,4) occ(11,5,3) occ(20,5,7) occ(39,5,1) occ(44,5,9) occ(53,5,6) occ(75,5,5) occ(85,5,2) occ(6,6,1) occ(9,6,5) occ(12,6,6) occ(16,6,4) occ(34,6,9) occ(56,6,2) occ(77,6,3) occ(80,6,8) occ(18,7,6) occ(22,7,8) occ(32,7,7) occ(41,7,2) occ(46,7,10) occ(51,7,5) occ(54,7,4) occ(72,7,9) occ(79,7,1) occ(83,7,3) occ(4,8,2) occ(24,8,10) occ(30,8,5) occ(48,8,8) occ(49,8,7) occ(52,8,6) occ(58,8,1) occ(62,8,3) occ(78,8,9) occ(28,9,7) occ(43,9,1) occ(47,9,5) occ(66,9,6) occ(70,9,10) occ(74,9,8) occ(81,9,2) occ(26,10,9) occ(45,10,3) occ(50,10,7) occ(60,10,2) occ(64,10,4) occ(68,10,8) occ(76,10,10)
Optimization: -92
Answer: 33
occ(1,4,9) occ(1,5,10) occ(1,9,9) occ(1,9,3) occ(1,6,7) occ(1,10,5) occ(2,9,4) occ(3,6,10) coverage(93) occ(18,1,2) occ(26,1,4) occ(31,1,5) occ(37,1,10) occ(48,1,3) occ(81,1,6) occ(85,1,8) occ(88,1,1) occ(91,1,7) occ(16,2,4) occ(24,2,2) occ(28,2,6) occ(33,2,7) occ(39,2,8) occ(46,2,5) occ(50,2,1) occ(53,2,9) occ(86,2,3) occ(87,2,10) occ(20,3,1) occ(29,3,4) occ(35,3,9) occ(41,3,6) occ(49,3,10) occ(52,3,3) occ(79,3,5) occ(83,3,7) occ(89,3,8) occ(90,3,2) occ(14,4,5) occ(22,4,3) occ(27,4,2) occ(30,4,7) occ(44,4,6) occ(51,4,8) occ(55,4,10) occ(66,4,1) occ(84,4,4) occ(43,5,7) occ(47,5,9) occ(54,5,2) occ(57,5,8) occ(68,5,3) occ(72,5,5) occ(77,5,4) occ(82,5,6) occ(92,5,1) occ(12,6,4) occ(13,6,9) occ(25,6,1) occ(32,6,6) occ(42,6,5) occ(64,6,2) occ(73,6,3) occ(80,6,8) occ(10,7,2) occ(11,7,7) occ(23,7,3) occ(45,7,8) occ(56,7,1) occ(59,7,9) occ(70,7,4) occ(74,7,6) occ(75,7,5) occ(78,7,10) occ(4,8,2) occ(5,8,9) occ(15,8,10) occ(21,8,5) occ(34,8,7) occ(40,8,6) occ(58,8,3) occ(62,8,1) occ(71,8,4) occ(76,8,8) occ(8,9,1) occ(9,9,8) occ(19,9,7) occ(36,9,5) occ(61,9,10) occ(65,9,6) occ(69,9,2) occ(6,10,3) occ(7,10,10) occ(17,10,9) occ(38,10,7) occ(60,10,2) occ(63,10,8) occ(67,10,4)
Optimization: -93
*** Info : (clingo): INTERRUPTED by signal!
SATISFIABLE

TIME LIMIT   : 1
Models       : 33+
  Optimum    : unknown
Optimization : -93
Calls        : 1
Time         : 300.000s (Solving: 298.55s 1st Model: 0.00s Unsat: 0.00s)
CPU Time     : 300.000s
